% Auto-generated by scripts/generate_dzn.py
% problem_type   = regex
% instance       = regex_74
% source_json    = instances_json/2_high_blowup/regex_74.json
% blowup         = 18.466666666666665
% representation = DFA

mode = 0;

var_count = 15;
Q = 277;
S = 3;
q0 = 1;
F = {190, 191, 192, 193, 194, 195, 196, 197, 198, 199, 200, 201, 202, 203, 204, 205, 206, 207, 208, 209, 210, 211, 212, 213, 214, 215, 216, 217, 218, 219, 220, 221, 222, 223, 224, 225, 226, 227, 228, 229, 230, 231, 232, 233, 234, 235, 236, 237, 238, 239, 240, 241, 242, 243, 244, 245, 246, 247, 248, 249, 250, 251, 252, 253, 254, 255, 256, 257, 258, 259, 260, 261, 262, 263, 264, 265, 266, 267, 268, 269, 270, 271, 272, 273, 274, 275, 276, 277};
d_dfa = array2d(1..277, 1..3, [
  1, 1, 2,
  3, 1, 2,
  4, 1, 2,
  6, 6, 5,
  9, 8, 7,
  8, 8, 7,
  12, 11, 10,
  11, 11, 10,
  13, 11, 10,
  16, 15, 14,
  15, 15, 14,
  17, 15, 14,
  19, 19, 18,
  22, 21, 20,
  21, 21, 20,
  23, 21, 20,
  25, 25, 24,
  28, 27, 26,
  27, 27, 26,
  31, 30, 29,
  30, 30, 29,
  32, 30, 29,
  34, 34, 33,
  37, 36, 35,
  36, 36, 35,
  40, 39, 38,
  39, 39, 38,
  41, 39, 38,
  44, 43, 42,
  43, 43, 42,
  45, 43, 42,
  47, 47, 46,
  50, 49, 48,
  49, 49, 48,
  53, 52, 51,
  52, 52, 51,
  54, 52, 51,
  57, 56, 55,
  56, 56, 55,
  58, 56, 55,
  60, 60, 59,
  63, 62, 61,
  62, 62, 61,
  64, 62, 61,
  66, 66, 65,
  69, 68, 67,
  68, 68, 67,
  72, 71, 70,
  71, 71, 70,
  73, 71, 70,
  76, 75, 74,
  75, 75, 74,
  77, 75, 74,
  79, 79, 78,
  82, 81, 80,
  81, 81, 80,
  83, 81, 80,
  85, 85, 84,
  88, 87, 86,
  87, 87, 86,
  91, 90, 89,
  90, 90, 89,
  92, 90, 89,
  94, 94, 93,
  97, 96, 95,
  96, 96, 95,
  100, 99, 98,
  99, 99, 98,
  101, 99, 98,
  104, 103, 102,
  103, 103, 102,
  105, 103, 102,
  107, 107, 106,
  110, 109, 108,
  109, 109, 108,
  111, 109, 108,
  113, 113, 112,
  116, 115, 114,
  115, 115, 114,
  119, 118, 117,
  118, 118, 117,
  120, 118, 117,
  122, 122, 121,
  125, 124, 123,
  124, 124, 123,
  128, 127, 126,
  127, 127, 126,
  129, 127, 126,
  132, 131, 130,
  131, 131, 130,
  133, 131, 130,
  135, 135, 134,
  138, 137, 136,
  137, 137, 136,
  141, 140, 139,
  140, 140, 139,
  142, 140, 139,
  145, 144, 143,
  144, 144, 143,
  146, 144, 143,
  148, 148, 147,
  151, 150, 149,
  150, 150, 149,
  152, 150, 149,
  154, 154, 153,
  157, 156, 155,
  156, 156, 155,
  160, 159, 158,
  159, 159, 158,
  161, 159, 158,
  163, 163, 162,
  166, 165, 164,
  165, 165, 164,
  169, 168, 167,
  168, 168, 167,
  170, 168, 167,
  173, 172, 171,
  172, 172, 171,
  174, 172, 171,
  176, 176, 175,
  179, 178, 177,
  178, 178, 177,
  182, 181, 180,
  181, 181, 180,
  183, 181, 180,
  186, 185, 184,
  185, 185, 184,
  187, 185, 184,
  189, 189, 188,
  192, 191, 190,
  191, 191, 190,
  193, 191, 190,
  195, 195, 194,
  198, 197, 196,
  197, 197, 196,
  201, 200, 199,
  200, 200, 199,
  202, 200, 199,
  205, 204, 203,
  204, 204, 203,
  206, 204, 203,
  208, 208, 207,
  211, 210, 209,
  210, 210, 209,
  212, 210, 209,
  214, 214, 213,
  217, 216, 215,
  216, 216, 215,
  220, 219, 218,
  219, 219, 218,
  221, 219, 218,
  223, 223, 222,
  226, 225, 224,
  225, 225, 224,
  229, 228, 227,
  228, 228, 227,
  230, 228, 227,
  233, 232, 231,
  232, 232, 231,
  234, 232, 231,
  236, 236, 235,
  239, 238, 237,
  238, 238, 237,
  242, 241, 240,
  241, 241, 240,
  243, 241, 240,
  246, 245, 244,
  245, 245, 244,
  247, 245, 244,
  249, 249, 248,
  252, 251, 250,
  251, 251, 250,
  253, 251, 250,
  255, 255, 254,
  258, 257, 256,
  257, 257, 256,
  261, 260, 259,
  260, 260, 259,
  262, 260, 259,
  265, 264, 263,
  264, 264, 263,
  266, 264, 263,
  268, 268, 267,
  271, 270, 269,
  270, 270, 269,
  272, 270, 269,
  274, 274, 273,
  277, 276, 275,
  276, 276, 275,
  3, 1, 2,
  1, 1, 2,
  4, 1, 2,
  6, 6, 5,
  9, 8, 7,
  8, 8, 7,
  12, 11, 10,
  11, 11, 10,
  13, 11, 10,
  16, 15, 14,
  15, 15, 14,
  17, 15, 14,
  19, 19, 18,
  22, 21, 20,
  21, 21, 20,
  23, 21, 20,
  25, 25, 24,
  28, 27, 26,
  27, 27, 26,
  31, 30, 29,
  30, 30, 29,
  32, 30, 29,
  34, 34, 33,
  37, 36, 35,
  36, 36, 35,
  40, 39, 38,
  39, 39, 38,
  41, 39, 38,
  44, 43, 42,
  43, 43, 42,
  45, 43, 42,
  47, 47, 46,
  50, 49, 48,
  49, 49, 48,
  53, 52, 51,
  52, 52, 51,
  54, 52, 51,
  57, 56, 55,
  56, 56, 55,
  58, 56, 55,
  60, 60, 59,
  63, 62, 61,
  62, 62, 61,
  64, 62, 61,
  66, 66, 65,
  69, 68, 67,
  68, 68, 67,
  72, 71, 70,
  71, 71, 70,
  73, 71, 70,
  76, 75, 74,
  75, 75, 74,
  77, 75, 74,
  79, 79, 78,
  82, 81, 80,
  81, 81, 80,
  83, 81, 80,
  85, 85, 84,
  88, 87, 86,
  87, 87, 86,
  91, 90, 89,
  90, 90, 89,
  92, 90, 89,
  94, 94, 93,
  97, 96, 95,
  96, 96, 95,
  100, 99, 98,
  99, 99, 98,
  101, 99, 98,
  104, 103, 102,
  103, 103, 102,
  105, 103, 102,
  107, 107, 106,
  110, 109, 108,
  109, 109, 108,
  111, 109, 108,
  113, 113, 112,
  116, 115, 114,
  115, 115, 114,
  119, 118, 117,
  118, 118, 117,
  120, 118, 117,
  122, 122, 121,
  125, 124, 123,
  124, 124, 123,
  128, 127, 126,
  127, 127, 126,
  129, 127, 126
]);
d_nfa = array2d(1..277, 1..3, [
  {}, {}, {},
  {}, {}, {},
  {}, {}, {},
  {}, {}, {},
  {}, {}, {},
  {}, {}, {},
  {}, {}, {},
  {}, {}, {},
  {}, {}, {},
  {}, {}, {},
  {}, {}, {},
  {}, {}, {},
  {}, {}, {},
  {}, {}, {},
  {}, {}, {},
  {}, {}, {},
  {}, {}, {},
  {}, {}, {},
  {}, {}, {},
  {}, {}, {},
  {}, {}, {},
  {}, {}, {},
  {}, {}, {},
  {}, {}, {},
  {}, {}, {},
  {}, {}, {},
  {}, {}, {},
  {}, {}, {},
  {}, {}, {},
  {}, {}, {},
  {}, {}, {},
  {}, {}, {},
  {}, {}, {},
  {}, {}, {},
  {}, {}, {},
  {}, {}, {},
  {}, {}, {},
  {}, {}, {},
  {}, {}, {},
  {}, {}, {},
  {}, {}, {},
  {}, {}, {},
  {}, {}, {},
  {}, {}, {},
  {}, {}, {},
  {}, {}, {},
  {}, {}, {},
  {}, {}, {},
  {}, {}, {},
  {}, {}, {},
  {}, {}, {},
  {}, {}, {},
  {}, {}, {},
  {}, {}, {},
  {}, {}, {},
  {}, {}, {},
  {}, {}, {},
  {}, {}, {},
  {}, {}, {},
  {}, {}, {},
  {}, {}, {},
  {}, {}, {},
  {}, {}, {},
  {}, {}, {},
  {}, {}, {},
  {}, {}, {},
  {}, {}, {},
  {}, {}, {},
  {}, {}, {},
  {}, {}, {},
  {}, {}, {},
  {}, {}, {},
  {}, {}, {},
  {}, {}, {},
  {}, {}, {},
  {}, {}, {},
  {}, {}, {},
  {}, {}, {},
  {}, {}, {},
  {}, {}, {},
  {}, {}, {},
  {}, {}, {},
  {}, {}, {},
  {}, {}, {},
  {}, {}, {},
  {}, {}, {},
  {}, {}, {},
  {}, {}, {},
  {}, {}, {},
  {}, {}, {},
  {}, {}, {},
  {}, {}, {},
  {}, {}, {},
  {}, {}, {},
  {}, {}, {},
  {}, {}, {},
  {}, {}, {},
  {}, {}, {},
  {}, {}, {},
  {}, {}, {},
  {}, {}, {},
  {}, {}, {},
  {}, {}, {},
  {}, {}, {},
  {}, {}, {},
  {}, {}, {},
  {}, {}, {},
  {}, {}, {},
  {}, {}, {},
  {}, {}, {},
  {}, {}, {},
  {}, {}, {},
  {}, {}, {},
  {}, {}, {},
  {}, {}, {},
  {}, {}, {},
  {}, {}, {},
  {}, {}, {},
  {}, {}, {},
  {}, {}, {},
  {}, {}, {},
  {}, {}, {},
  {}, {}, {},
  {}, {}, {},
  {}, {}, {},
  {}, {}, {},
  {}, {}, {},
  {}, {}, {},
  {}, {}, {},
  {}, {}, {},
  {}, {}, {},
  {}, {}, {},
  {}, {}, {},
  {}, {}, {},
  {}, {}, {},
  {}, {}, {},
  {}, {}, {},
  {}, {}, {},
  {}, {}, {},
  {}, {}, {},
  {}, {}, {},
  {}, {}, {},
  {}, {}, {},
  {}, {}, {},
  {}, {}, {},
  {}, {}, {},
  {}, {}, {},
  {}, {}, {},
  {}, {}, {},
  {}, {}, {},
  {}, {}, {},
  {}, {}, {},
  {}, {}, {},
  {}, {}, {},
  {}, {}, {},
  {}, {}, {},
  {}, {}, {},
  {}, {}, {},
  {}, {}, {},
  {}, {}, {},
  {}, {}, {},
  {}, {}, {},
  {}, {}, {},
  {}, {}, {},
  {}, {}, {},
  {}, {}, {},
  {}, {}, {},
  {}, {}, {},
  {}, {}, {},
  {}, {}, {},
  {}, {}, {},
  {}, {}, {},
  {}, {}, {},
  {}, {}, {},
  {}, {}, {},
  {}, {}, {},
  {}, {}, {},
  {}, {}, {},
  {}, {}, {},
  {}, {}, {},
  {}, {}, {},
  {}, {}, {},
  {}, {}, {},
  {}, {}, {},
  {}, {}, {},
  {}, {}, {},
  {}, {}, {},
  {}, {}, {},
  {}, {}, {},
  {}, {}, {},
  {}, {}, {},
  {}, {}, {},
  {}, {}, {},
  {}, {}, {},
  {}, {}, {},
  {}, {}, {},
  {}, {}, {},
  {}, {}, {},
  {}, {}, {},
  {}, {}, {},
  {}, {}, {},
  {}, {}, {},
  {}, {}, {},
  {}, {}, {},
  {}, {}, {},
  {}, {}, {},
  {}, {}, {},
  {}, {}, {},
  {}, {}, {},
  {}, {}, {},
  {}, {}, {},
  {}, {}, {},
  {}, {}, {},
  {}, {}, {},
  {}, {}, {},
  {}, {}, {},
  {}, {}, {},
  {}, {}, {},
  {}, {}, {},
  {}, {}, {},
  {}, {}, {},
  {}, {}, {},
  {}, {}, {},
  {}, {}, {},
  {}, {}, {},
  {}, {}, {},
  {}, {}, {},
  {}, {}, {},
  {}, {}, {},
  {}, {}, {},
  {}, {}, {},
  {}, {}, {},
  {}, {}, {},
  {}, {}, {},
  {}, {}, {},
  {}, {}, {},
  {}, {}, {},
  {}, {}, {},
  {}, {}, {},
  {}, {}, {},
  {}, {}, {},
  {}, {}, {},
  {}, {}, {},
  {}, {}, {},
  {}, {}, {},
  {}, {}, {},
  {}, {}, {},
  {}, {}, {},
  {}, {}, {},
  {}, {}, {},
  {}, {}, {},
  {}, {}, {},
  {}, {}, {},
  {}, {}, {},
  {}, {}, {},
  {}, {}, {},
  {}, {}, {},
  {}, {}, {},
  {}, {}, {},
  {}, {}, {},
  {}, {}, {},
  {}, {}, {},
  {}, {}, {},
  {}, {}, {},
  {}, {}, {},
  {}, {}, {},
  {}, {}, {},
  {}, {}, {},
  {}, {}, {},
  {}, {}, {},
  {}, {}, {},
  {}, {}, {},
  {}, {}, {},
  {}, {}, {},
  {}, {}, {},
  {}, {}, {},
  {}, {}, {}
]);
